\* Source Pyomo model name=MASTER *\

min 
x1:
+0.112 x125
+0.112 x126
+0.111 x190
+0.111 x191
+0.111 x255
+0.111 x256
+0.111 x320
+0.111 x321
+0.111 x385
+0.111 x386
+0.111 x450
+0.111 x451
+0.111 x515
+0.111 x516
+0.111 x580
+0.111 x581
+0.111 x645
+0.111 x646

s.t.

c_e_x2_:
-1 x226
+1 x56
= 0

c_e_x3_:
-1 x161
+1 x56
= 0

c_e_x4_:
+1 x56
-1 x96
= 0

c_e_x5_:
-1 x486
+1 x56
= 0

c_e_x6_:
-1 x421
+1 x56
= 0

c_e_x7_:
-1 x356
+1 x56
= 0

c_e_x8_:
-1 x291
+1 x56
= 0

c_e_x9_:
+1 x56
-1 x616
= 0

c_e_x10_:
-1 x551
+1 x56
= 0

c_e_x11_:
-1 x227
+1 x57
= 0

c_e_x12_:
-1 x162
+1 x57
= 0

c_e_x13_:
+1 x57
-1 x97
= 0

c_e_x14_:
-1 x487
+1 x57
= 0

c_e_x15_:
-1 x422
+1 x57
= 0

c_e_x16_:
-1 x357
+1 x57
= 0

c_e_x17_:
-1 x292
+1 x57
= 0

c_e_x18_:
+1 x57
-1 x617
= 0

c_e_x19_:
-1 x552
+1 x57
= 0

c_e_x20_:
-1 x222
+1 x58
= 0

c_e_x21_:
-1 x157
+1 x58
= 0

c_e_x22_:
+1 x58
-1 x92
= 0

c_e_x23_:
-1 x482
+1 x58
= 0

c_e_x24_:
-1 x417
+1 x58
= 0

c_e_x25_:
-1 x352
+1 x58
= 0

c_e_x26_:
-1 x287
+1 x58
= 0

c_e_x27_:
+1 x58
-1 x612
= 0

c_e_x28_:
-1 x547
+1 x58
= 0

c_e_x29_:
-1 x223
+1 x59
= 0

c_e_x30_:
-1 x158
+1 x59
= 0

c_e_x31_:
+1 x59
-1 x93
= 0

c_e_x32_:
-1 x483
+1 x59
= 0

c_e_x33_:
-1 x418
+1 x59
= 0

c_e_x34_:
-1 x353
+1 x59
= 0

c_e_x35_:
-1 x288
+1 x59
= 0

c_e_x36_:
+1 x59
-1 x613
= 0

c_e_x37_:
-1 x548
+1 x59
= 0

c_e_x38_:
-1 x224
+1 x60
= 0

c_e_x39_:
-1 x159
+1 x60
= 0

c_e_x40_:
+1 x60
-1 x94
= 0

c_e_x41_:
-1 x484
+1 x60
= 0

c_e_x42_:
-1 x419
+1 x60
= 0

c_e_x43_:
-1 x354
+1 x60
= 0

c_e_x44_:
-1 x289
+1 x60
= 0

c_e_x45_:
+1 x60
-1 x614
= 0

c_e_x46_:
-1 x549
+1 x60
= 0

c_e_x47_:
-1 x225
+1 x61
= 0

c_e_x48_:
-1 x160
+1 x61
= 0

c_e_x49_:
+1 x61
-1 x95
= 0

c_e_x50_:
-1 x485
+1 x61
= 0

c_e_x51_:
-1 x420
+1 x61
= 0

c_e_x52_:
-1 x355
+1 x61
= 0

c_e_x53_:
-1 x290
+1 x61
= 0

c_e_x54_:
+1 x61
-1 x615
= 0

c_e_x55_:
-1 x550
+1 x61
= 0

c_l_x64_:
+1 x104
+10 x92
+10 x93
+10 x97
>= 100

c_l_x63_:
+1 x101
+10 x92
+10 x93
+10 x97
>= 100

c_l_x62_:
+10 x92
+10 x93
+10 x97
+1 x98
>= 100

c_l_x68_:
+1 x116
+10 x92
+10 x93
+10 x97
>= 100

c_l_x67_:
+1 x113
+10 x92
+10 x93
+10 x97
>= 100

c_l_x66_:
+1 x110
+10 x92
+10 x93
+10 x97
>= 100

c_l_x65_:
+1 x107
+10 x92
+10 x93
+10 x97
>= 100

c_l_x70_:
+1 x122
+10 x92
+10 x93
+10 x97
>= 100

c_l_x69_:
+1 x119
+10 x92
+10 x93
+10 x97
>= 100

c_l_x73_:
+1 x105
+10 x93
+10 x94
+10 x95
>= 100

c_l_x72_:
+1 x102
+10 x93
+10 x94
+10 x95
>= 100

c_l_x71_:
+10 x93
+10 x94
+10 x95
+1 x99
>= 100

c_l_x77_:
+1 x117
+10 x93
+10 x94
+10 x95
>= 100

c_l_x76_:
+1 x114
+10 x93
+10 x94
+10 x95
>= 100

c_l_x75_:
+1 x111
+10 x93
+10 x94
+10 x95
>= 100

c_l_x74_:
+1 x108
+10 x93
+10 x94
+10 x95
>= 100

c_l_x79_:
+1 x123
+10 x93
+10 x94
+10 x95
>= 100

c_l_x78_:
+1 x120
+10 x93
+10 x94
+10 x95
>= 100

c_l_x82_:
+1 x106
+10 x92
+10 x95
+10 x96
>= 110

c_l_x81_:
+1 x103
+10 x92
+10 x95
+10 x96
>= 110

c_l_x80_:
+1 x100
+10 x92
+10 x95
+10 x96
>= 110

c_l_x86_:
+1 x118
+10 x92
+10 x95
+10 x96
>= 110

c_l_x85_:
+1 x115
+10 x92
+10 x95
+10 x96
>= 110

c_l_x84_:
+1 x112
+10 x92
+10 x95
+10 x96
>= 110

c_l_x83_:
+1 x109
+10 x92
+10 x95
+10 x96
>= 110

c_l_x88_:
+1 x124
+10 x92
+10 x95
+10 x96
>= 110

c_l_x87_:
+1 x121
+10 x92
+10 x95
+10 x96
>= 110

c_u_x89_:
+1 x92
+1 x93
+1 x94
+1 x95
+1 x96
+1 x97
<= 15

c_e_x90_:
+1 x125
-600 x92
-600 x93
-300 x94
-600 x95
-300 x96
-300 x97
= 0

c_e_x91_:
-50 x100
-50 x101
-50 x102
-50 x103
-50 x104
-50 x105
-50 x106
-50 x107
-50 x108
-50 x109
-50 x110
-50 x111
-50 x112
-50 x113
-50 x114
-50 x115
-50 x116
-50 x117
-50 x118
-50 x119
-50 x120
-50 x121
-50 x122
-50 x123
-50 x124
+1 x126
-50 x98
-50 x99
= 0

c_l_x129_:
+10 x157
+10 x158
+10 x162
+1 x169
>= 100

c_l_x128_:
+10 x157
+10 x158
+10 x162
+1 x166
>= 100

c_l_x127_:
+10 x157
+10 x158
+10 x162
+1 x163
>= 100

c_l_x133_:
+10 x157
+10 x158
+10 x162
+1 x181
>= 100

c_l_x132_:
+10 x157
+10 x158
+10 x162
+1 x178
>= 100

c_l_x131_:
+10 x157
+10 x158
+10 x162
+1 x175
>= 100

c_l_x130_:
+10 x157
+10 x158
+10 x162
+1 x172
>= 100

c_l_x135_:
+10 x157
+10 x158
+10 x162
+1 x187
>= 100

c_l_x134_:
+10 x157
+10 x158
+10 x162
+1 x184
>= 100

c_l_x138_:
+10 x158
+10 x159
+10 x160
+1 x170
>= 110

c_l_x137_:
+10 x158
+10 x159
+10 x160
+1 x167
>= 110

c_l_x136_:
+10 x158
+10 x159
+10 x160
+1 x164
>= 110

c_l_x142_:
+10 x158
+10 x159
+10 x160
+1 x182
>= 110

c_l_x141_:
+10 x158
+10 x159
+10 x160
+1 x179
>= 110

c_l_x140_:
+10 x158
+10 x159
+10 x160
+1 x176
>= 110

c_l_x139_:
+10 x158
+10 x159
+10 x160
+1 x173
>= 110

c_l_x144_:
+10 x158
+10 x159
+10 x160
+1 x188
>= 110

c_l_x143_:
+10 x158
+10 x159
+10 x160
+1 x185
>= 110

c_l_x147_:
+10 x157
+10 x160
+10 x161
+1 x171
>= 120

c_l_x146_:
+10 x157
+10 x160
+10 x161
+1 x168
>= 120

c_l_x145_:
+10 x157
+10 x160
+10 x161
+1 x165
>= 120

c_l_x151_:
+10 x157
+10 x160
+10 x161
+1 x183
>= 120

c_l_x150_:
+10 x157
+10 x160
+10 x161
+1 x180
>= 120

c_l_x149_:
+10 x157
+10 x160
+10 x161
+1 x177
>= 120

c_l_x148_:
+10 x157
+10 x160
+10 x161
+1 x174
>= 120

c_l_x153_:
+10 x157
+10 x160
+10 x161
+1 x189
>= 120

c_l_x152_:
+10 x157
+10 x160
+10 x161
+1 x186
>= 120

c_u_x154_:
+1 x157
+1 x158
+1 x159
+1 x160
+1 x161
+1 x162
<= 15

c_e_x155_:
-600 x157
-600 x158
-300 x159
-600 x160
-300 x161
-300 x162
+1 x190
= 0

c_e_x156_:
-50 x163
-50 x164
-50 x165
-50 x166
-50 x167
-50 x168
-50 x169
-50 x170
-50 x171
-50 x172
-50 x173
-50 x174
-50 x175
-50 x176
-50 x177
-50 x178
-50 x179
-50 x180
-50 x181
-50 x182
-50 x183
-50 x184
-50 x185
-50 x186
-50 x187
-50 x188
-50 x189
+1 x191
= 0

c_l_x194_:
+10 x222
+10 x223
+10 x227
+1 x234
>= 100

c_l_x193_:
+10 x222
+10 x223
+10 x227
+1 x231
>= 100

c_l_x192_:
+10 x222
+10 x223
+10 x227
+1 x228
>= 100

c_l_x198_:
+10 x222
+10 x223
+10 x227
+1 x246
>= 100

c_l_x197_:
+10 x222
+10 x223
+10 x227
+1 x243
>= 100

c_l_x196_:
+10 x222
+10 x223
+10 x227
+1 x240
>= 100

c_l_x195_:
+10 x222
+10 x223
+10 x227
+1 x237
>= 100

c_l_x200_:
+10 x222
+10 x223
+10 x227
+1 x252
>= 100

c_l_x199_:
+10 x222
+10 x223
+10 x227
+1 x249
>= 100

c_l_x203_:
+10 x223
+10 x224
+10 x225
+1 x235
>= 90

c_l_x202_:
+10 x223
+10 x224
+10 x225
+1 x232
>= 90

c_l_x201_:
+10 x223
+10 x224
+10 x225
+1 x229
>= 90

c_l_x207_:
+10 x223
+10 x224
+10 x225
+1 x247
>= 90

c_l_x206_:
+10 x223
+10 x224
+10 x225
+1 x244
>= 90

c_l_x205_:
+10 x223
+10 x224
+10 x225
+1 x241
>= 90

c_l_x204_:
+10 x223
+10 x224
+10 x225
+1 x238
>= 90

c_l_x209_:
+10 x223
+10 x224
+10 x225
+1 x253
>= 90

c_l_x208_:
+10 x223
+10 x224
+10 x225
+1 x250
>= 90

c_l_x212_:
+10 x222
+10 x225
+10 x226
+1 x236
>= 120

c_l_x211_:
+10 x222
+10 x225
+10 x226
+1 x233
>= 120

c_l_x210_:
+10 x222
+10 x225
+10 x226
+1 x230
>= 120

c_l_x216_:
+10 x222
+10 x225
+10 x226
+1 x248
>= 120

c_l_x215_:
+10 x222
+10 x225
+10 x226
+1 x245
>= 120

c_l_x214_:
+10 x222
+10 x225
+10 x226
+1 x242
>= 120

c_l_x213_:
+10 x222
+10 x225
+10 x226
+1 x239
>= 120

c_l_x218_:
+10 x222
+10 x225
+10 x226
+1 x254
>= 120

c_l_x217_:
+10 x222
+10 x225
+10 x226
+1 x251
>= 120

c_u_x219_:
+1 x222
+1 x223
+1 x224
+1 x225
+1 x226
+1 x227
<= 15

c_e_x220_:
-600 x222
-600 x223
-300 x224
-600 x225
-300 x226
-300 x227
+1 x255
= 0

c_e_x221_:
-50 x228
-50 x229
-50 x230
-50 x231
-50 x232
-50 x233
-50 x234
-50 x235
-50 x236
-50 x237
-50 x238
-50 x239
-50 x240
-50 x241
-50 x242
-50 x243
-50 x244
-50 x245
-50 x246
-50 x247
-50 x248
-50 x249
-50 x250
-50 x251
-50 x252
-50 x253
-50 x254
+1 x256
= 0

c_l_x259_:
+10 x287
+10 x288
+10 x292
+1 x299
>= 80

c_l_x258_:
+10 x287
+10 x288
+10 x292
+1 x296
>= 80

c_l_x257_:
+10 x287
+10 x288
+10 x292
+1 x293
>= 80

c_l_x263_:
+10 x287
+10 x288
+10 x292
+1 x311
>= 80

c_l_x262_:
+10 x287
+10 x288
+10 x292
+1 x308
>= 80

c_l_x261_:
+10 x287
+10 x288
+10 x292
+1 x305
>= 80

c_l_x260_:
+10 x287
+10 x288
+10 x292
+1 x302
>= 80

c_l_x265_:
+10 x287
+10 x288
+10 x292
+1 x317
>= 80

c_l_x264_:
+10 x287
+10 x288
+10 x292
+1 x314
>= 80

c_l_x268_:
+10 x288
+10 x289
+10 x290
+1 x300
>= 90

c_l_x267_:
+10 x288
+10 x289
+10 x290
+1 x297
>= 90

c_l_x266_:
+10 x288
+10 x289
+10 x290
+1 x294
>= 90

c_l_x272_:
+10 x288
+10 x289
+10 x290
+1 x312
>= 90

c_l_x271_:
+10 x288
+10 x289
+10 x290
+1 x309
>= 90

c_l_x270_:
+10 x288
+10 x289
+10 x290
+1 x306
>= 90

c_l_x269_:
+10 x288
+10 x289
+10 x290
+1 x303
>= 90

c_l_x274_:
+10 x288
+10 x289
+10 x290
+1 x318
>= 90

c_l_x273_:
+10 x288
+10 x289
+10 x290
+1 x315
>= 90

c_l_x277_:
+10 x287
+10 x290
+10 x291
+1 x301
>= 100

c_l_x276_:
+10 x287
+10 x290
+10 x291
+1 x298
>= 100

c_l_x275_:
+10 x287
+10 x290
+10 x291
+1 x295
>= 100

c_l_x281_:
+10 x287
+10 x290
+10 x291
+1 x313
>= 100

c_l_x280_:
+10 x287
+10 x290
+10 x291
+1 x310
>= 100

c_l_x279_:
+10 x287
+10 x290
+10 x291
+1 x307
>= 100

c_l_x278_:
+10 x287
+10 x290
+10 x291
+1 x304
>= 100

c_l_x283_:
+10 x287
+10 x290
+10 x291
+1 x319
>= 100

c_l_x282_:
+10 x287
+10 x290
+10 x291
+1 x316
>= 100

c_u_x284_:
+1 x287
+1 x288
+1 x289
+1 x290
+1 x291
+1 x292
<= 15

c_e_x285_:
-600 x287
-600 x288
-300 x289
-600 x290
-300 x291
-300 x292
+1 x320
= 0

c_e_x286_:
-50 x293
-50 x294
-50 x295
-50 x296
-50 x297
-50 x298
-50 x299
-50 x300
-50 x301
-50 x302
-50 x303
-50 x304
-50 x305
-50 x306
-50 x307
-50 x308
-50 x309
-50 x310
-50 x311
-50 x312
-50 x313
-50 x314
-50 x315
-50 x316
-50 x317
-50 x318
-50 x319
+1 x321
= 0

c_l_x324_:
+10 x352
+10 x353
+10 x357
+1 x364
>= 90

c_l_x323_:
+10 x352
+10 x353
+10 x357
+1 x361
>= 90

c_l_x322_:
+10 x352
+10 x353
+10 x357
+1 x358
>= 90

c_l_x328_:
+10 x352
+10 x353
+10 x357
+1 x376
>= 90

c_l_x327_:
+10 x352
+10 x353
+10 x357
+1 x373
>= 90

c_l_x326_:
+10 x352
+10 x353
+10 x357
+1 x370
>= 90

c_l_x325_:
+10 x352
+10 x353
+10 x357
+1 x367
>= 90

c_l_x330_:
+10 x352
+10 x353
+10 x357
+1 x382
>= 90

c_l_x329_:
+10 x352
+10 x353
+10 x357
+1 x379
>= 90

c_l_x333_:
+10 x353
+10 x354
+10 x355
+1 x365
>= 90

c_l_x332_:
+10 x353
+10 x354
+10 x355
+1 x362
>= 90

c_l_x331_:
+10 x353
+10 x354
+10 x355
+1 x359
>= 90

c_l_x337_:
+10 x353
+10 x354
+10 x355
+1 x377
>= 90

c_l_x336_:
+10 x353
+10 x354
+10 x355
+1 x374
>= 90

c_l_x335_:
+10 x353
+10 x354
+10 x355
+1 x371
>= 90

c_l_x334_:
+10 x353
+10 x354
+10 x355
+1 x368
>= 90

c_l_x339_:
+10 x353
+10 x354
+10 x355
+1 x383
>= 90

c_l_x338_:
+10 x353
+10 x354
+10 x355
+1 x380
>= 90

c_l_x342_:
+10 x352
+10 x355
+10 x356
+1 x366
>= 100

c_l_x341_:
+10 x352
+10 x355
+10 x356
+1 x363
>= 100

c_l_x340_:
+10 x352
+10 x355
+10 x356
+1 x360
>= 100

c_l_x346_:
+10 x352
+10 x355
+10 x356
+1 x378
>= 100

c_l_x345_:
+10 x352
+10 x355
+10 x356
+1 x375
>= 100

c_l_x344_:
+10 x352
+10 x355
+10 x356
+1 x372
>= 100

c_l_x343_:
+10 x352
+10 x355
+10 x356
+1 x369
>= 100

c_l_x348_:
+10 x352
+10 x355
+10 x356
+1 x384
>= 100

c_l_x347_:
+10 x352
+10 x355
+10 x356
+1 x381
>= 100

c_u_x349_:
+1 x352
+1 x353
+1 x354
+1 x355
+1 x356
+1 x357
<= 15

c_e_x350_:
-600 x352
-600 x353
-300 x354
-600 x355
-300 x356
-300 x357
+1 x385
= 0

c_e_x351_:
-50 x358
-50 x359
-50 x360
-50 x361
-50 x362
-50 x363
-50 x364
-50 x365
-50 x366
-50 x367
-50 x368
-50 x369
-50 x370
-50 x371
-50 x372
-50 x373
-50 x374
-50 x375
-50 x376
-50 x377
-50 x378
-50 x379
-50 x380
-50 x381
-50 x382
-50 x383
-50 x384
+1 x386
= 0

c_l_x389_:
+10 x417
+10 x418
+10 x422
+1 x429
>= 90

c_l_x388_:
+10 x417
+10 x418
+10 x422
+1 x426
>= 90

c_l_x387_:
+10 x417
+10 x418
+10 x422
+1 x423
>= 90

c_l_x393_:
+10 x417
+10 x418
+10 x422
+1 x441
>= 90

c_l_x392_:
+10 x417
+10 x418
+10 x422
+1 x438
>= 90

c_l_x391_:
+10 x417
+10 x418
+10 x422
+1 x435
>= 90

c_l_x390_:
+10 x417
+10 x418
+10 x422
+1 x432
>= 90

c_l_x395_:
+10 x417
+10 x418
+10 x422
+1 x447
>= 90

c_l_x394_:
+10 x417
+10 x418
+10 x422
+1 x444
>= 90

c_l_x398_:
+10 x418
+10 x419
+10 x420
+1 x430
>= 80

c_l_x397_:
+10 x418
+10 x419
+10 x420
+1 x427
>= 80

c_l_x396_:
+10 x418
+10 x419
+10 x420
+1 x424
>= 80

c_l_x402_:
+10 x418
+10 x419
+10 x420
+1 x442
>= 80

c_l_x401_:
+10 x418
+10 x419
+10 x420
+1 x439
>= 80

c_l_x400_:
+10 x418
+10 x419
+10 x420
+1 x436
>= 80

c_l_x399_:
+10 x418
+10 x419
+10 x420
+1 x433
>= 80

c_l_x404_:
+10 x418
+10 x419
+10 x420
+1 x448
>= 80

c_l_x403_:
+10 x418
+10 x419
+10 x420
+1 x445
>= 80

c_l_x407_:
+10 x417
+10 x420
+10 x421
+1 x431
>= 110

c_l_x406_:
+10 x417
+10 x420
+10 x421
+1 x428
>= 110

c_l_x405_:
+10 x417
+10 x420
+10 x421
+1 x425
>= 110

c_l_x411_:
+10 x417
+10 x420
+10 x421
+1 x443
>= 110

c_l_x410_:
+10 x417
+10 x420
+10 x421
+1 x440
>= 110

c_l_x409_:
+10 x417
+10 x420
+10 x421
+1 x437
>= 110

c_l_x408_:
+10 x417
+10 x420
+10 x421
+1 x434
>= 110

c_l_x413_:
+10 x417
+10 x420
+10 x421
+1 x449
>= 110

c_l_x412_:
+10 x417
+10 x420
+10 x421
+1 x446
>= 110

c_u_x414_:
+1 x417
+1 x418
+1 x419
+1 x420
+1 x421
+1 x422
<= 15

c_e_x415_:
-600 x417
-600 x418
-300 x419
-600 x420
-300 x421
-300 x422
+1 x450
= 0

c_e_x416_:
-50 x423
-50 x424
-50 x425
-50 x426
-50 x427
-50 x428
-50 x429
-50 x430
-50 x431
-50 x432
-50 x433
-50 x434
-50 x435
-50 x436
-50 x437
-50 x438
-50 x439
-50 x440
-50 x441
-50 x442
-50 x443
-50 x444
-50 x445
-50 x446
-50 x447
-50 x448
-50 x449
+1 x451
= 0

c_l_x454_:
+10 x482
+10 x483
+10 x487
+1 x494
>= 90

c_l_x453_:
+10 x482
+10 x483
+10 x487
+1 x491
>= 90

c_l_x452_:
+10 x482
+10 x483
+10 x487
+1 x488
>= 90

c_l_x458_:
+10 x482
+10 x483
+10 x487
+1 x506
>= 90

c_l_x457_:
+10 x482
+10 x483
+10 x487
+1 x503
>= 90

c_l_x456_:
+10 x482
+10 x483
+10 x487
+1 x500
>= 90

c_l_x455_:
+10 x482
+10 x483
+10 x487
+1 x497
>= 90

c_l_x460_:
+10 x482
+10 x483
+10 x487
+1 x512
>= 90

c_l_x459_:
+10 x482
+10 x483
+10 x487
+1 x509
>= 90

c_l_x463_:
+10 x483
+10 x484
+10 x485
+1 x495
>= 100

c_l_x462_:
+10 x483
+10 x484
+10 x485
+1 x492
>= 100

c_l_x461_:
+10 x483
+10 x484
+10 x485
+1 x489
>= 100

c_l_x467_:
+10 x483
+10 x484
+10 x485
+1 x507
>= 100

c_l_x466_:
+10 x483
+10 x484
+10 x485
+1 x504
>= 100

c_l_x465_:
+10 x483
+10 x484
+10 x485
+1 x501
>= 100

c_l_x464_:
+10 x483
+10 x484
+10 x485
+1 x498
>= 100

c_l_x469_:
+10 x483
+10 x484
+10 x485
+1 x513
>= 100

c_l_x468_:
+10 x483
+10 x484
+10 x485
+1 x510
>= 100

c_l_x472_:
+10 x482
+10 x485
+10 x486
+1 x496
>= 110

c_l_x471_:
+10 x482
+10 x485
+10 x486
+1 x493
>= 110

c_l_x470_:
+10 x482
+10 x485
+10 x486
+1 x490
>= 110

c_l_x476_:
+10 x482
+10 x485
+10 x486
+1 x508
>= 110

c_l_x475_:
+10 x482
+10 x485
+10 x486
+1 x505
>= 110

c_l_x474_:
+10 x482
+10 x485
+10 x486
+1 x502
>= 110

c_l_x473_:
+10 x482
+10 x485
+10 x486
+1 x499
>= 110

c_l_x478_:
+10 x482
+10 x485
+10 x486
+1 x514
>= 110

c_l_x477_:
+10 x482
+10 x485
+10 x486
+1 x511
>= 110

c_u_x479_:
+1 x482
+1 x483
+1 x484
+1 x485
+1 x486
+1 x487
<= 15

c_e_x480_:
-600 x482
-600 x483
-300 x484
-600 x485
-300 x486
-300 x487
+1 x515
= 0

c_e_x481_:
-50 x488
-50 x489
-50 x490
-50 x491
-50 x492
-50 x493
-50 x494
-50 x495
-50 x496
-50 x497
-50 x498
-50 x499
-50 x500
-50 x501
-50 x502
-50 x503
-50 x504
-50 x505
-50 x506
-50 x507
-50 x508
-50 x509
-50 x510
-50 x511
-50 x512
-50 x513
-50 x514
+1 x516
= 0

c_l_x519_:
+10 x547
+10 x548
+10 x552
+1 x559
>= 80

c_l_x518_:
+10 x547
+10 x548
+10 x552
+1 x556
>= 80

c_l_x517_:
+10 x547
+10 x548
+10 x552
+1 x553
>= 80

c_l_x523_:
+10 x547
+10 x548
+10 x552
+1 x571
>= 80

c_l_x522_:
+10 x547
+10 x548
+10 x552
+1 x568
>= 80

c_l_x521_:
+10 x547
+10 x548
+10 x552
+1 x565
>= 80

c_l_x520_:
+10 x547
+10 x548
+10 x552
+1 x562
>= 80

c_l_x525_:
+10 x547
+10 x548
+10 x552
+1 x577
>= 80

c_l_x524_:
+10 x547
+10 x548
+10 x552
+1 x574
>= 80

c_l_x528_:
+10 x548
+10 x549
+10 x550
+1 x560
>= 80

c_l_x527_:
+10 x548
+10 x549
+10 x550
+1 x557
>= 80

c_l_x526_:
+10 x548
+10 x549
+10 x550
+1 x554
>= 80

c_l_x532_:
+10 x548
+10 x549
+10 x550
+1 x572
>= 80

c_l_x531_:
+10 x548
+10 x549
+10 x550
+1 x569
>= 80

c_l_x530_:
+10 x548
+10 x549
+10 x550
+1 x566
>= 80

c_l_x529_:
+10 x548
+10 x549
+10 x550
+1 x563
>= 80

c_l_x534_:
+10 x548
+10 x549
+10 x550
+1 x578
>= 80

c_l_x533_:
+10 x548
+10 x549
+10 x550
+1 x575
>= 80

c_l_x537_:
+10 x547
+10 x550
+10 x551
+1 x561
>= 90

c_l_x536_:
+10 x547
+10 x550
+10 x551
+1 x558
>= 90

c_l_x535_:
+10 x547
+10 x550
+10 x551
+1 x555
>= 90

c_l_x541_:
+10 x547
+10 x550
+10 x551
+1 x573
>= 90

c_l_x540_:
+10 x547
+10 x550
+10 x551
+1 x570
>= 90

c_l_x539_:
+10 x547
+10 x550
+10 x551
+1 x567
>= 90

c_l_x538_:
+10 x547
+10 x550
+10 x551
+1 x564
>= 90

c_l_x543_:
+10 x547
+10 x550
+10 x551
+1 x579
>= 90

c_l_x542_:
+10 x547
+10 x550
+10 x551
+1 x576
>= 90

c_u_x544_:
+1 x547
+1 x548
+1 x549
+1 x550
+1 x551
+1 x552
<= 15

c_e_x545_:
-600 x547
-600 x548
-300 x549
-600 x550
-300 x551
-300 x552
+1 x580
= 0

c_e_x546_:
-50 x553
-50 x554
-50 x555
-50 x556
-50 x557
-50 x558
-50 x559
-50 x560
-50 x561
-50 x562
-50 x563
-50 x564
-50 x565
-50 x566
-50 x567
-50 x568
-50 x569
-50 x570
-50 x571
-50 x572
-50 x573
-50 x574
-50 x575
-50 x576
-50 x577
-50 x578
-50 x579
+1 x581
= 0

c_l_x584_:
+10 x612
+10 x613
+10 x617
+1 x624
>= 80

c_l_x583_:
+10 x612
+10 x613
+10 x617
+1 x621
>= 80

c_l_x582_:
+10 x612
+10 x613
+10 x617
+1 x618
>= 80

c_l_x588_:
+10 x612
+10 x613
+10 x617
+1 x636
>= 80

c_l_x587_:
+10 x612
+10 x613
+10 x617
+1 x633
>= 80

c_l_x586_:
+10 x612
+10 x613
+10 x617
+1 x630
>= 80

c_l_x585_:
+10 x612
+10 x613
+10 x617
+1 x627
>= 80

c_l_x590_:
+10 x612
+10 x613
+10 x617
+1 x642
>= 80

c_l_x589_:
+10 x612
+10 x613
+10 x617
+1 x639
>= 80

c_l_x593_:
+10 x613
+10 x614
+10 x615
+1 x625
>= 70

c_l_x592_:
+10 x613
+10 x614
+10 x615
+1 x622
>= 70

c_l_x591_:
+10 x613
+10 x614
+10 x615
+1 x619
>= 70

c_l_x597_:
+10 x613
+10 x614
+10 x615
+1 x637
>= 70

c_l_x596_:
+10 x613
+10 x614
+10 x615
+1 x634
>= 70

c_l_x595_:
+10 x613
+10 x614
+10 x615
+1 x631
>= 70

c_l_x594_:
+10 x613
+10 x614
+10 x615
+1 x628
>= 70

c_l_x599_:
+10 x613
+10 x614
+10 x615
+1 x643
>= 70

c_l_x598_:
+10 x613
+10 x614
+10 x615
+1 x640
>= 70

c_l_x602_:
+10 x612
+10 x615
+10 x616
+1 x626
>= 100

c_l_x601_:
+10 x612
+10 x615
+10 x616
+1 x623
>= 100

c_l_x600_:
+10 x612
+10 x615
+10 x616
+1 x620
>= 100

c_l_x606_:
+10 x612
+10 x615
+10 x616
+1 x638
>= 100

c_l_x605_:
+10 x612
+10 x615
+10 x616
+1 x635
>= 100

c_l_x604_:
+10 x612
+10 x615
+10 x616
+1 x632
>= 100

c_l_x603_:
+10 x612
+10 x615
+10 x616
+1 x629
>= 100

c_l_x608_:
+10 x612
+10 x615
+10 x616
+1 x644
>= 100

c_l_x607_:
+10 x612
+10 x615
+10 x616
+1 x641
>= 100

c_u_x609_:
+1 x612
+1 x613
+1 x614
+1 x615
+1 x616
+1 x617
<= 15

c_e_x610_:
-600 x612
-600 x613
-300 x614
-600 x615
-300 x616
-300 x617
+1 x645
= 0

c_e_x611_:
-50 x618
-50 x619
-50 x620
-50 x621
-50 x622
-50 x623
-50 x624
-50 x625
-50 x626
-50 x627
-50 x628
-50 x629
-50 x630
-50 x631
-50 x632
-50 x633
-50 x634
-50 x635
-50 x636
-50 x637
-50 x638
-50 x639
-50 x640
-50 x641
-50 x642
-50 x643
-50 x644
+1 x646
= 0

c_e_ONE_VAR_CONSTANT: 
ONE_VAR_CONSTANT = 1.0

bounds 
    -inf <= x56 <= +inf
    -inf <= x57 <= +inf
    -inf <= x58 <= +inf
    -inf <= x59 <= +inf
    -inf <= x60 <= +inf
    -inf <= x61 <= +inf
   0 <= x96 <= +inf
   0 <= x97 <= +inf
   0 <= x92 <= +inf
   0 <= x93 <= +inf
   0 <= x94 <= +inf
   0 <= x95 <= +inf
   0 <= x106 <= +inf
   0 <= x104 <= +inf
   0 <= x105 <= +inf
   0 <= x103 <= +inf
   0 <= x101 <= +inf
   0 <= x102 <= +inf
   0 <= x100 <= +inf
   0 <= x98 <= +inf
   0 <= x99 <= +inf
   0 <= x118 <= +inf
   0 <= x116 <= +inf
   0 <= x117 <= +inf
   0 <= x115 <= +inf
   0 <= x113 <= +inf
   0 <= x114 <= +inf
   0 <= x112 <= +inf
   0 <= x110 <= +inf
   0 <= x111 <= +inf
   0 <= x109 <= +inf
   0 <= x107 <= +inf
   0 <= x108 <= +inf
   0 <= x124 <= +inf
   0 <= x122 <= +inf
   0 <= x123 <= +inf
   0 <= x121 <= +inf
   0 <= x119 <= +inf
   0 <= x120 <= +inf
    -inf <= x125 <= +inf
    -inf <= x126 <= +inf
   0 <= x161 <= +inf
   0 <= x162 <= +inf
   0 <= x157 <= +inf
   0 <= x158 <= +inf
   0 <= x159 <= +inf
   0 <= x160 <= +inf
   0 <= x171 <= +inf
   0 <= x169 <= +inf
   0 <= x170 <= +inf
   0 <= x168 <= +inf
   0 <= x166 <= +inf
   0 <= x167 <= +inf
   0 <= x165 <= +inf
   0 <= x163 <= +inf
   0 <= x164 <= +inf
   0 <= x183 <= +inf
   0 <= x181 <= +inf
   0 <= x182 <= +inf
   0 <= x180 <= +inf
   0 <= x178 <= +inf
   0 <= x179 <= +inf
   0 <= x177 <= +inf
   0 <= x175 <= +inf
   0 <= x176 <= +inf
   0 <= x174 <= +inf
   0 <= x172 <= +inf
   0 <= x173 <= +inf
   0 <= x189 <= +inf
   0 <= x187 <= +inf
   0 <= x188 <= +inf
   0 <= x186 <= +inf
   0 <= x184 <= +inf
   0 <= x185 <= +inf
    -inf <= x190 <= +inf
    -inf <= x191 <= +inf
   0 <= x226 <= +inf
   0 <= x227 <= +inf
   0 <= x222 <= +inf
   0 <= x223 <= +inf
   0 <= x224 <= +inf
   0 <= x225 <= +inf
   0 <= x236 <= +inf
   0 <= x234 <= +inf
   0 <= x235 <= +inf
   0 <= x233 <= +inf
   0 <= x231 <= +inf
   0 <= x232 <= +inf
   0 <= x230 <= +inf
   0 <= x228 <= +inf
   0 <= x229 <= +inf
   0 <= x248 <= +inf
   0 <= x246 <= +inf
   0 <= x247 <= +inf
   0 <= x245 <= +inf
   0 <= x243 <= +inf
   0 <= x244 <= +inf
   0 <= x242 <= +inf
   0 <= x240 <= +inf
   0 <= x241 <= +inf
   0 <= x239 <= +inf
   0 <= x237 <= +inf
   0 <= x238 <= +inf
   0 <= x254 <= +inf
   0 <= x252 <= +inf
   0 <= x253 <= +inf
   0 <= x251 <= +inf
   0 <= x249 <= +inf
   0 <= x250 <= +inf
    -inf <= x255 <= +inf
    -inf <= x256 <= +inf
   0 <= x291 <= +inf
   0 <= x292 <= +inf
   0 <= x287 <= +inf
   0 <= x288 <= +inf
   0 <= x289 <= +inf
   0 <= x290 <= +inf
   0 <= x301 <= +inf
   0 <= x299 <= +inf
   0 <= x300 <= +inf
   0 <= x298 <= +inf
   0 <= x296 <= +inf
   0 <= x297 <= +inf
   0 <= x295 <= +inf
   0 <= x293 <= +inf
   0 <= x294 <= +inf
   0 <= x313 <= +inf
   0 <= x311 <= +inf
   0 <= x312 <= +inf
   0 <= x310 <= +inf
   0 <= x308 <= +inf
   0 <= x309 <= +inf
   0 <= x307 <= +inf
   0 <= x305 <= +inf
   0 <= x306 <= +inf
   0 <= x304 <= +inf
   0 <= x302 <= +inf
   0 <= x303 <= +inf
   0 <= x319 <= +inf
   0 <= x317 <= +inf
   0 <= x318 <= +inf
   0 <= x316 <= +inf
   0 <= x314 <= +inf
   0 <= x315 <= +inf
    -inf <= x320 <= +inf
    -inf <= x321 <= +inf
   0 <= x356 <= +inf
   0 <= x357 <= +inf
   0 <= x352 <= +inf
   0 <= x353 <= +inf
   0 <= x354 <= +inf
   0 <= x355 <= +inf
   0 <= x366 <= +inf
   0 <= x364 <= +inf
   0 <= x365 <= +inf
   0 <= x363 <= +inf
   0 <= x361 <= +inf
   0 <= x362 <= +inf
   0 <= x360 <= +inf
   0 <= x358 <= +inf
   0 <= x359 <= +inf
   0 <= x378 <= +inf
   0 <= x376 <= +inf
   0 <= x377 <= +inf
   0 <= x375 <= +inf
   0 <= x373 <= +inf
   0 <= x374 <= +inf
   0 <= x372 <= +inf
   0 <= x370 <= +inf
   0 <= x371 <= +inf
   0 <= x369 <= +inf
   0 <= x367 <= +inf
   0 <= x368 <= +inf
   0 <= x384 <= +inf
   0 <= x382 <= +inf
   0 <= x383 <= +inf
   0 <= x381 <= +inf
   0 <= x379 <= +inf
   0 <= x380 <= +inf
    -inf <= x385 <= +inf
    -inf <= x386 <= +inf
   0 <= x421 <= +inf
   0 <= x422 <= +inf
   0 <= x417 <= +inf
   0 <= x418 <= +inf
   0 <= x419 <= +inf
   0 <= x420 <= +inf
   0 <= x431 <= +inf
   0 <= x429 <= +inf
   0 <= x430 <= +inf
   0 <= x428 <= +inf
   0 <= x426 <= +inf
   0 <= x427 <= +inf
   0 <= x425 <= +inf
   0 <= x423 <= +inf
   0 <= x424 <= +inf
   0 <= x443 <= +inf
   0 <= x441 <= +inf
   0 <= x442 <= +inf
   0 <= x440 <= +inf
   0 <= x438 <= +inf
   0 <= x439 <= +inf
   0 <= x437 <= +inf
   0 <= x435 <= +inf
   0 <= x436 <= +inf
   0 <= x434 <= +inf
   0 <= x432 <= +inf
   0 <= x433 <= +inf
   0 <= x449 <= +inf
   0 <= x447 <= +inf
   0 <= x448 <= +inf
   0 <= x446 <= +inf
   0 <= x444 <= +inf
   0 <= x445 <= +inf
    -inf <= x450 <= +inf
    -inf <= x451 <= +inf
   0 <= x486 <= +inf
   0 <= x487 <= +inf
   0 <= x482 <= +inf
   0 <= x483 <= +inf
   0 <= x484 <= +inf
   0 <= x485 <= +inf
   0 <= x496 <= +inf
   0 <= x494 <= +inf
   0 <= x495 <= +inf
   0 <= x493 <= +inf
   0 <= x491 <= +inf
   0 <= x492 <= +inf
   0 <= x490 <= +inf
   0 <= x488 <= +inf
   0 <= x489 <= +inf
   0 <= x508 <= +inf
   0 <= x506 <= +inf
   0 <= x507 <= +inf
   0 <= x505 <= +inf
   0 <= x503 <= +inf
   0 <= x504 <= +inf
   0 <= x502 <= +inf
   0 <= x500 <= +inf
   0 <= x501 <= +inf
   0 <= x499 <= +inf
   0 <= x497 <= +inf
   0 <= x498 <= +inf
   0 <= x514 <= +inf
   0 <= x512 <= +inf
   0 <= x513 <= +inf
   0 <= x511 <= +inf
   0 <= x509 <= +inf
   0 <= x510 <= +inf
    -inf <= x515 <= +inf
    -inf <= x516 <= +inf
   0 <= x551 <= +inf
   0 <= x552 <= +inf
   0 <= x547 <= +inf
   0 <= x548 <= +inf
   0 <= x549 <= +inf
   0 <= x550 <= +inf
   0 <= x561 <= +inf
   0 <= x559 <= +inf
   0 <= x560 <= +inf
   0 <= x558 <= +inf
   0 <= x556 <= +inf
   0 <= x557 <= +inf
   0 <= x555 <= +inf
   0 <= x553 <= +inf
   0 <= x554 <= +inf
   0 <= x573 <= +inf
   0 <= x571 <= +inf
   0 <= x572 <= +inf
   0 <= x570 <= +inf
   0 <= x568 <= +inf
   0 <= x569 <= +inf
   0 <= x567 <= +inf
   0 <= x565 <= +inf
   0 <= x566 <= +inf
   0 <= x564 <= +inf
   0 <= x562 <= +inf
   0 <= x563 <= +inf
   0 <= x579 <= +inf
   0 <= x577 <= +inf
   0 <= x578 <= +inf
   0 <= x576 <= +inf
   0 <= x574 <= +inf
   0 <= x575 <= +inf
    -inf <= x580 <= +inf
    -inf <= x581 <= +inf
   0 <= x616 <= +inf
   0 <= x617 <= +inf
   0 <= x612 <= +inf
   0 <= x613 <= +inf
   0 <= x614 <= +inf
   0 <= x615 <= +inf
   0 <= x626 <= +inf
   0 <= x624 <= +inf
   0 <= x625 <= +inf
   0 <= x623 <= +inf
   0 <= x621 <= +inf
   0 <= x622 <= +inf
   0 <= x620 <= +inf
   0 <= x618 <= +inf
   0 <= x619 <= +inf
   0 <= x638 <= +inf
   0 <= x636 <= +inf
   0 <= x637 <= +inf
   0 <= x635 <= +inf
   0 <= x633 <= +inf
   0 <= x634 <= +inf
   0 <= x632 <= +inf
   0 <= x630 <= +inf
   0 <= x631 <= +inf
   0 <= x629 <= +inf
   0 <= x627 <= +inf
   0 <= x628 <= +inf
   0 <= x644 <= +inf
   0 <= x642 <= +inf
   0 <= x643 <= +inf
   0 <= x641 <= +inf
   0 <= x639 <= +inf
   0 <= x640 <= +inf
    -inf <= x645 <= +inf
    -inf <= x646 <= +inf
general
  x96
  x97
  x92
  x93
  x94
  x95
  x106
  x104
  x105
  x103
  x101
  x102
  x100
  x98
  x99
  x118
  x116
  x117
  x115
  x113
  x114
  x112
  x110
  x111
  x109
  x107
  x108
  x124
  x122
  x123
  x121
  x119
  x120
  x161
  x162
  x157
  x158
  x159
  x160
  x171
  x169
  x170
  x168
  x166
  x167
  x165
  x163
  x164
  x183
  x181
  x182
  x180
  x178
  x179
  x177
  x175
  x176
  x174
  x172
  x173
  x189
  x187
  x188
  x186
  x184
  x185
  x226
  x227
  x222
  x223
  x224
  x225
  x236
  x234
  x235
  x233
  x231
  x232
  x230
  x228
  x229
  x248
  x246
  x247
  x245
  x243
  x244
  x242
  x240
  x241
  x239
  x237
  x238
  x254
  x252
  x253
  x251
  x249
  x250
  x291
  x292
  x287
  x288
  x289
  x290
  x301
  x299
  x300
  x298
  x296
  x297
  x295
  x293
  x294
  x313
  x311
  x312
  x310
  x308
  x309
  x307
  x305
  x306
  x304
  x302
  x303
  x319
  x317
  x318
  x316
  x314
  x315
  x356
  x357
  x352
  x353
  x354
  x355
  x366
  x364
  x365
  x363
  x361
  x362
  x360
  x358
  x359
  x378
  x376
  x377
  x375
  x373
  x374
  x372
  x370
  x371
  x369
  x367
  x368
  x384
  x382
  x383
  x381
  x379
  x380
  x421
  x422
  x417
  x418
  x419
  x420
  x431
  x429
  x430
  x428
  x426
  x427
  x425
  x423
  x424
  x443
  x441
  x442
  x440
  x438
  x439
  x437
  x435
  x436
  x434
  x432
  x433
  x449
  x447
  x448
  x446
  x444
  x445
  x486
  x487
  x482
  x483
  x484
  x485
  x496
  x494
  x495
  x493
  x491
  x492
  x490
  x488
  x489
  x508
  x506
  x507
  x505
  x503
  x504
  x502
  x500
  x501
  x499
  x497
  x498
  x514
  x512
  x513
  x511
  x509
  x510
  x551
  x552
  x547
  x548
  x549
  x550
  x561
  x559
  x560
  x558
  x556
  x557
  x555
  x553
  x554
  x573
  x571
  x572
  x570
  x568
  x569
  x567
  x565
  x566
  x564
  x562
  x563
  x579
  x577
  x578
  x576
  x574
  x575
  x616
  x617
  x612
  x613
  x614
  x615
  x626
  x624
  x625
  x623
  x621
  x622
  x620
  x618
  x619
  x638
  x636
  x637
  x635
  x633
  x634
  x632
  x630
  x631
  x629
  x627
  x628
  x644
  x642
  x643
  x641
  x639
  x640
end 
